sat
(
  (define-fun K () String
    "")
  (define-fun G () String
    "")
  (define-fun Q () String
    "")
  (define-fun F () String
    "")
  (define-fun L () String
    "")
  (define-fun H () String
    "b")
  (define-fun M () String
    "")
  (define-fun R () String
    "baa")
)
